R101

VEHICLE
NUMBER     CAPACITY
  25         200

CUSTOMER
CUST NO.   XCOORD.   YCOORD.    DEMAND   READY TIME   DUE DATE   SERVICE TIME
 
    0          35      35           0       0         230           0
    1          41      49          10     161         171          10
    2          35      17           7      50          60          10
    3          55      45          13     116         126          10
    4          55      20          19     149         159          10
    5          15      30          26      34          44          10